# Solution for model GasLib-40
# Objective value = 2.2517226436438332e+01
loadshed[innode_1] 0
loadshed[innode_2] 0
loadshed[innode_3] 0
loadshed[innode_4] 0
loadshed[innode_5] 0
loadshed[innode_6] 0
loadshed[innode_7] 0
loadshed[innode_8] 0
loadshed[source_1] -2.9633582491551058e-01
loadshed[source_2] 1.0609807823465522e-01
loadshed[source_3] 3.3267045508594939e-01
loadshed[sink_1] 0
loadshed[sink_2] 0
loadshed[sink_3] 0
loadshed[sink_4] 0
loadshed[sink_5] 0
loadshed[sink_6] 0
loadshed[sink_7] 0
loadshed[sink_8] 0
loadshed[sink_9] 0
loadshed[sink_10] 0
loadshed[sink_11] 0
loadshed[sink_12] 1
loadshed[sink_13] 0
loadshed[sink_14] 0
loadshed[sink_15] 0
loadshed[sink_16] 0
loadshed[sink_17] 0
loadshed[sink_18] 0
loadshed[sink_19] 0
loadshed[sink_20] 0
loadshed[sink_21] 3.7684951458476418e-01
loadshed[sink_22] 0
loadshed[sink_23] 0
loadshed[sink_24] 0
loadshed[sink_25] 0
loadshed[sink_26] 0
loadshed[sink_27] 0
loadshed[sink_28] 0
loadshed[sink_29] 0
flow[source_1,sink_3] 2.0493809065417776e+02
flow[innode_1,sink_16] 1.6354166666666970e+01
flow[innode_6,sink_13] 8.9808535418999309e+00
flow[sink_13,sink_14] -7.3733131247667369e+00
flow[sink_14,sink_10] -2.3727479791433552e+01
flow[sink_25,sink_26] 1.5322593641134881e+02
flow[sink_26,sink_9] 8.1770833333333655e+01
flow[sink_9,sink_18] 6.5416666666666671e+01
flow[sink_26,sink_4] 5.5100936411348506e+01
flow[sink_4,sink_20] -1.6522550368984888e+01
flow[sink_18,sink_6] 4.9062500000000313e+01
flow[sink_25,innode_8] -1.7222975732084140e+02
flow[sink_6,sink_7] 0
flow[sink_6,sink_22] 3.2708333333333641e+01
flow[sink_7,sink_24] 2.6545273563561658e+01
flow[sink_22,sink_1] 1.6354166666666970e+01
flow[sink_24,sink_21] 1.0191106896895004e+01
flow[sink_21,sink_12] 0
flow[sink_7,sink_5] -4.2899440230228322e+01
flow[sink_5,sink_17] -5.9253606896894993e+01
flow[sink_17,sink_4] -5.5269320113666730e+01
flow[sink_17,sink_8] -2.0338453449894924e+01
flow[sink_3,sink_23] 16.3541666666697
flow[sink_8,sink_20] -3.6692620116561592e+01
flow[sink_25,sink_20] 6.9569337152213222e+01
flow[sink_25,sink_15] -7.5900536451287124e+01
flow[sink_15,sink_29] -1.0860886978463805e+02
flow[sink_29,sink_28] 1.6354166666667879e+01
flow[sink_29,sink_2] 0
flow[sink_2,sink_15] -1.6354166666684250e+01
flow[sink_29,innode_7] -1.4131720311797272e+02
flow[innode_4,sink_19] 1.0549831312478028e+02
flow[sink_19,innode_3] 3.5521202891882083e+01
flow[innode_4,innode_5] 0
flow[sink_27,innode_5] 0
flow[sink_27,sink_19] -1.6354166666679703e+01
flow[sink_10,sink_11] 3.2708333333333641e+01
flow[sink_10,innode_2] -3.7268776899551824e+01
flow[sink_10,innode_3] -3.5521202891882083e+01
flow[innode_6,sink_25] -8.9808535418999309e+00
flow[sink_11,innode_1] 1.6354166666666970e+01
flow[sink_19,innode_2] 3.7268776899551824e+01
flow[source_3,innode_4] 1.0549831312478028e+02
flow[source_2,innode_7] 1.4131720311797272e+02
flow[sink_3,innode_8] 1.7222975732084140e+02
pressure[innode_1] 7.4617734432246536e+01
pressure[innode_2] 7.6739244524081215e+01
pressure[innode_3] 7.6660586842617022e+01
pressure[innode_4] 81.01325
pressure[innode_5] 7.6388114526937713e+01
pressure[innode_6] 7.3683474035393374e+01
pressure[innode_7] 81.01325
pressure[innode_8] 8.0328220252131388e+01
pressure[source_1] 81.01325
pressure[source_2] 81.01325
pressure[source_3] 81.01325
pressure[sink_1] 5.2219503484987357e+01
pressure[sink_2] 7.3998272846555651e+01
pressure[sink_3] 8.0328220252131388e+01
pressure[sink_4] 5.5886185655615819e+01
pressure[sink_5] 4.9360009069374755e+01
pressure[sink_6] 5.4320581095374727e+01
pressure[sink_7] 3.1518467351740924e+01
pressure[sink_8] 5.4541397172488409e+01
pressure[sink_9] 5.7997665898833013e+01
pressure[sink_10] 7.4769435739850081e+01
pressure[sink_11] 7.4617734432246536e+01
pressure[sink_12] 1.01325
pressure[sink_13] 7.3633964090656931e+01
pressure[sink_14] 73.6471592625611
pressure[sink_15] 74.0516655963221
pressure[sink_16] 7.3596084597428856e+01
pressure[sink_17] 5.3773974485821128e+01
pressure[sink_18] 5.5630695923634356e+01
pressure[sink_19] 7.6739244524081215e+01
pressure[sink_20] 5.7098356776350826e+01
pressure[sink_21] 1.01325
pressure[sink_22] 5.3283272627342363e+01
pressure[sink_23] 80.1635022404716
pressure[sink_24] 1.1261070402155495e+00
pressure[sink_25] 7.3683474035393374e+01
pressure[sink_26] 6.2891861318544365e+01
pressure[sink_27] 7.6388114526937713e+01
pressure[sink_28] 7.6938286152484224e+01
pressure[sink_29] 77.2335684261014
interdiction[source_1,sink_3] 0
interdiction[innode_1,sink_16] 0
interdiction[innode_6,sink_13] 0
interdiction[sink_13,sink_14] 0
interdiction[sink_14,sink_10] 0
interdiction[sink_25,sink_26] 0
interdiction[sink_26,sink_9] 0
interdiction[sink_9,sink_18] 0
interdiction[sink_26,sink_4] 0
interdiction[sink_4,sink_20] 0
interdiction[sink_18,sink_6] 0
interdiction[sink_25,innode_8] 0
interdiction[sink_6,sink_7] 1
interdiction[sink_6,sink_22] 0
interdiction[sink_7,sink_24] 0
interdiction[sink_22,sink_1] 0
interdiction[sink_24,sink_21] 0
interdiction[sink_21,sink_12] 0
interdiction[sink_7,sink_5] 0
interdiction[sink_5,sink_17] 0
interdiction[sink_17,sink_4] 0
interdiction[sink_17,sink_8] 0
interdiction[sink_3,sink_23] 0
interdiction[sink_8,sink_20] 0
interdiction[sink_25,sink_20] 0
interdiction[sink_25,sink_15] 0
interdiction[sink_15,sink_29] 0
interdiction[sink_29,sink_28] 0
interdiction[sink_29,sink_2] 1
interdiction[sink_2,sink_15] 0
interdiction[sink_29,innode_7] 0
interdiction[innode_4,sink_19] 0
interdiction[sink_19,innode_3] 0
interdiction[innode_4,innode_5] 1
interdiction[sink_27,innode_5] 0
interdiction[sink_27,sink_19] 0
interdiction[sink_10,sink_11] 0
interdiction[sink_10,innode_2] 0
interdiction[sink_10,innode_3] 0
interdiction[innode_6,sink_25] 0
interdiction[sink_11,innode_1] 0
interdiction[sink_19,innode_2] 0
interdiction[source_3,innode_4] 0
interdiction[source_2,innode_7] 0
interdiction[sink_3,innode_8] 0
WCcheckFlow[source_1,sink_3] 39
WCcheckFlow[innode_1,sink_16] 1
WCcheckFlow[innode_6,sink_13] 13
WCcheckFlow[sink_13,sink_14] 12
WCcheckFlow[sink_14,sink_10] 11
WCcheckFlow[sink_25,sink_26] 15
WCcheckFlow[sink_26,sink_9] 5
WCcheckFlow[sink_9,sink_18] 4
WCcheckFlow[sink_26,sink_4] 9
WCcheckFlow[sink_4,sink_20] 1
WCcheckFlow[sink_18,sink_6] 3
WCcheckFlow[sink_25,innode_8] -36
WCcheckFlow[sink_6,sink_7] 0
WCcheckFlow[sink_6,sink_22] 2
WCcheckFlow[sink_7,sink_24] 3
WCcheckFlow[sink_22,sink_1] 1
WCcheckFlow[sink_24,sink_21] 2
WCcheckFlow[sink_21,sink_12] 1
WCcheckFlow[sink_7,sink_5] -4
WCcheckFlow[sink_5,sink_17] -5
WCcheckFlow[sink_17,sink_4] -7
WCcheckFlow[sink_17,sink_8] 1
WCcheckFlow[sink_3,sink_23] 1
WCcheckFlow[sink_8,sink_20] 0
WCcheckFlow[sink_25,sink_20] 0
WCcheckFlow[sink_25,sink_15] 6
WCcheckFlow[sink_15,sink_29] 4
WCcheckFlow[sink_29,sink_28] 1
WCcheckFlow[sink_29,sink_2] 0
WCcheckFlow[sink_2,sink_15] -1
WCcheckFlow[sink_29,innode_7] 2
WCcheckFlow[innode_4,sink_19] -2
WCcheckFlow[sink_19,innode_3] -5
WCcheckFlow[innode_4,innode_5] 0
WCcheckFlow[sink_27,innode_5] 1
WCcheckFlow[sink_27,sink_19] -2
WCcheckFlow[sink_10,sink_11] 3
WCcheckFlow[sink_10,innode_2] 1
WCcheckFlow[sink_10,innode_3] 6
WCcheckFlow[innode_6,sink_25] -14
WCcheckFlow[sink_11,innode_1] 2
WCcheckFlow[sink_19,innode_2] 0
WCcheckFlow[source_3,innode_4] -1
WCcheckFlow[source_2,innode_7] -1
WCcheckFlow[sink_3,innode_8] 37
